solution status: optimal solution found
objective value:                              3128900
ter$A#1                                             1 	(obj:0)
ter$A#6                                             1 	(obj:0)
ter$A#7                                             1 	(obj:0)
ter$A#8                                             1 	(obj:0)
ter$A#9                                             1 	(obj:0)
ter$A#18                                            1 	(obj:0)
ter$A#19                                            1 	(obj:0)
ter$A#20                                            1 	(obj:0)
ter$A#21                                            1 	(obj:0)
ter$B#1                                             1 	(obj:0)
ter$B#6                                             1 	(obj:0)
ter$B#7                                             1 	(obj:0)
ter$B#8                                             1 	(obj:0)
ter$B#9                                             1 	(obj:0)
ter$B#18                                            1 	(obj:0)
ter$B#19                                            1 	(obj:0)
ter$B#20                                            1 	(obj:0)
ter$B#21                                            1 	(obj:0)
ter$C#1                                             1 	(obj:0)
ter$C#6                                             1 	(obj:0)
ter$C#7                                             1 	(obj:0)
ter$C#8                                             1 	(obj:0)
ter$C#9                                             1 	(obj:0)
ter$C#18                                            1 	(obj:0)
ter$C#19                                            1 	(obj:0)
ter$C#20                                            1 	(obj:0)
ter$C#21                                            1 	(obj:0)
ter$D#1                                             1 	(obj:0)
ter$D#6                                             1 	(obj:0)
ter$D#7                                             1 	(obj:0)
ter$D#8                                             1 	(obj:0)
ter$D#9                                             1 	(obj:0)
ter$D#18                                            1 	(obj:0)
ter$D#19                                            1 	(obj:0)
ter$D#20                                            1 	(obj:0)
ter$D#21                                            1 	(obj:0)
ter$E#1                                             1 	(obj:0)
ter$E#6                                             1 	(obj:0)
ter$E#7                                             1 	(obj:0)
ter$E#8                                             1 	(obj:0)
ter$E#9                                             1 	(obj:0)
ter$E#18                                            1 	(obj:0)
ter$E#19                                            1 	(obj:0)
ter$E#20                                            1 	(obj:0)
ter$E#21                                            1 	(obj:0)
L$A#1                                              12 	(obj:3700)
L$A#2                                               8 	(obj:3700)
L$A#4                                               6 	(obj:3700)
L$A#6                                               6 	(obj:3700)
L$A#7                                               6 	(obj:3700)
L$A#8                                              12 	(obj:3700)
L$A#9                                              12 	(obj:3700)
L$A#10                                              6 	(obj:3700)
L$A#11                                              3 	(obj:3700)
L$A#12                                             12 	(obj:3700)
L$A#13                                             12 	(obj:3700)
L$A#15                                              6 	(obj:3700)
L$A#16                                              3 	(obj:3700)
L$A#17                                              6 	(obj:3700)
L$A#19                                             12 	(obj:3700)
L$A#20                                              6 	(obj:3700)
L$A#21                                              6 	(obj:3700)
L$A#22                                              6 	(obj:3700)
L$A#23                                              5 	(obj:3700)
L$B#1                                              11 	(obj:3700)
L$B#2                                              12 	(obj:3700)
L$B#3                                               8 	(obj:3700)
L$B#4                                              12 	(obj:3700)
L$B#5                                               6 	(obj:3700)
L$B#6                                              12 	(obj:3700)
L$B#7                                              12 	(obj:3700)
L$B#8                                               6 	(obj:3700)
L$B#9                                              12 	(obj:3700)
L$B#10                                              8 	(obj:3700)
L$B#11                                              5 	(obj:3700)
L$B#13                                              4 	(obj:3700)
L$B#14                                             11 	(obj:3700)
L$B#15                                             12 	(obj:3700)
L$B#16                                             12 	(obj:3700)
L$B#17                                             12 	(obj:3700)
L$B#18                                             12 	(obj:3700)
L$B#19                                              6 	(obj:3700)
L$B#20                                             12 	(obj:3700)
L$B#21                                             12 	(obj:3700)
L$B#22                                              6 	(obj:3700)
L$B#23                                              4 	(obj:3700)
L$B#24                                              2 	(obj:3700)
L$C#1                                               7 	(obj:3700)
L$C#7                                              12 	(obj:3700)
L$C#10                                              6 	(obj:3700)
L$C#12                                              6 	(obj:3700)
L$C#16                                             12 	(obj:3700)
L$C#17                                             12 	(obj:3700)
L$C#22                                              5 	(obj:3700)
L$D#2                                              10 	(obj:3700)
L$D#3                                              12 	(obj:3700)
L$D#5                                              12 	(obj:3700)
L$D#9                                               6 	(obj:3700)
L$D#10                                              3 	(obj:3700)
L$D#11                                             10 	(obj:3700)
L$D#15                                             12 	(obj:3700)
L$D#18                                             12 	(obj:3700)
L$D#20                                             12 	(obj:3700)
L$D#22                                              5 	(obj:3700)
L$D#24                                              1 	(obj:3700)
L$E#3                                              10 	(obj:3700)
L$E#4                                              12 	(obj:3700)
L$E#5                                              12 	(obj:3700)
L$E#6                                              12 	(obj:3700)
L$E#8                                              12 	(obj:3700)
L$E#10                                              7 	(obj:3700)
L$E#11                                             12 	(obj:3700)
L$E#12                                             12 	(obj:3700)
L$E#13                                             12 	(obj:3700)
L$E#18                                              6 	(obj:3700)
L$E#19                                             12 	(obj:3700)
L$E#21                                             12 	(obj:3700)
L$E#22                                              7 	(obj:3700)
L$E#23                                              6 	(obj:3700)
S$A#1                                             135 	(obj:0)
S$A#2                                             190 	(obj:0)
S$A#3                                             160 	(obj:0)
S$A#4                                             180 	(obj:0)
S$A#5                                             120 	(obj:0)
S$A#6                                             100 	(obj:0)
S$A#8                                              10 	(obj:0)
S$A#12                                            100 	(obj:0)
S$A#13                                            200 	(obj:0)
S$A#14                                            175 	(obj:0)
S$A#15                                            205 	(obj:0)
S$A#16                                            195 	(obj:0)
S$A#17                                            195 	(obj:0)
S$A#18                                            125 	(obj:0)
S$A#19                                            130 	(obj:0)
S$A#23                                             20 	(obj:0)
S$B#1                                             105 	(obj:0)
S$B#2                                             185 	(obj:0)
S$B#3                                             225 	(obj:0)
S$B#4                                             300 	(obj:0)
S$B#5                                             270 	(obj:0)
S$B#6                                             270 	(obj:0)
S$B#7                                             200 	(obj:0)
S$B#8                                              30 	(obj:0)
S$B#10                                             20 	(obj:0)
S$B#11                                             30 	(obj:0)
S$B#12                                              5 	(obj:0)
S$B#13                                             15 	(obj:0)
S$B#14                                             85 	(obj:0)
S$B#15                                            165 	(obj:0)
S$B#16                                            240 	(obj:0)
S$B#17                                            270 	(obj:0)
S$B#18                                            270 	(obj:0)
S$B#19                                            140 	(obj:0)
S$B#20                                             30 	(obj:0)
S$B#21                                              5 	(obj:0)
S$B#22                                              5 	(obj:0)
S$B#23                                              5 	(obj:0)
S$C#1                                              85 	(obj:0)
S$C#2                                              70 	(obj:0)
S$C#3                                              55 	(obj:0)
S$C#4                                              35 	(obj:0)
S$C#5                                               5 	(obj:0)
S$C#6                                              75 	(obj:0)
S$C#7                                             125 	(obj:0)
S$C#8                                              55 	(obj:0)
S$C#10                                             30 	(obj:0)
S$C#11                                             15 	(obj:0)
S$C#12                                             65 	(obj:0)
S$C#13                                             55 	(obj:0)
S$C#14                                             40 	(obj:0)
S$C#15                                             25 	(obj:0)
S$C#16                                            125 	(obj:0)
S$C#17                                            215 	(obj:0)
S$C#18                                            215 	(obj:0)
S$C#19                                            145 	(obj:0)
S$C#20                                             60 	(obj:0)
S$C#21                                              5 	(obj:0)
S$C#22                                             25 	(obj:0)
S$C#23                                             10 	(obj:0)
S$D#1                                               5 	(obj:0)
S$D#2                                              85 	(obj:0)
S$D#3                                             185 	(obj:0)
S$D#4                                             165 	(obj:0)
S$D#5                                             240 	(obj:0)
S$D#6                                             190 	(obj:0)
S$D#7                                             105 	(obj:0)
S$D#8                                               5 	(obj:0)
S$D#11                                             80 	(obj:0)
S$D#12                                             65 	(obj:0)
S$D#13                                             50 	(obj:0)
S$D#14                                             30 	(obj:0)
S$D#15                                            130 	(obj:0)
S$D#16                                            110 	(obj:0)
S$D#17                                             65 	(obj:0)
S$D#18                                            140 	(obj:0)
S$D#19                                             55 	(obj:0)
S$D#20                                             70 	(obj:0)
S$D#21                                              5 	(obj:0)
S$D#22                                             25 	(obj:0)
S$D#23                                              5 	(obj:0)
S$E#1                                              15 	(obj:0)
S$E#3                                              80 	(obj:0)
S$E#4                                             175 	(obj:0)
S$E#5                                             225 	(obj:0)
S$E#6                                             265 	(obj:0)
S$E#7                                             135 	(obj:0)
S$E#8                                             115 	(obj:0)
S$E#11                                             80 	(obj:0)
S$E#12                                            180 	(obj:0)
S$E#13                                            285 	(obj:0)
S$E#14                                            270 	(obj:0)
S$E#15                                            250 	(obj:0)
S$E#16                                            225 	(obj:0)
S$E#17                                            155 	(obj:0)
S$E#18                                            150 	(obj:0)
S$E#19                                            140 	(obj:0)
S$E#23                                             20 	(obj:0)
U$A#1                                             120 	(obj:0)
U$A#2                                              80 	(obj:0)
U$A#4                                              60 	(obj:0)
U$A#6                                              60 	(obj:0)
U$A#7                                              60 	(obj:0)
U$A#8                                             120 	(obj:0)
U$A#9                                             120 	(obj:0)
U$A#10                                             60 	(obj:0)
U$A#11                                             30 	(obj:0)
U$A#12                                            120 	(obj:0)
U$A#13                                            120 	(obj:0)
U$A#15                                             60 	(obj:0)
U$A#16                                             30 	(obj:0)
U$A#17                                             60 	(obj:0)
U$A#19                                            120 	(obj:0)
U$A#20                                             60 	(obj:0)
U$A#21                                             60 	(obj:0)
U$A#22                                             60 	(obj:0)
U$A#23                                             50 	(obj:0)
U$B#1                                             110 	(obj:0)
U$B#2                                             120 	(obj:0)
U$B#3                                              80 	(obj:0)
U$B#4                                             120 	(obj:0)
U$B#5                                              60 	(obj:0)
U$B#6                                             120 	(obj:0)
U$B#7                                             120 	(obj:0)
U$B#8                                              60 	(obj:0)
U$B#9                                             120 	(obj:0)
U$B#10                                             80 	(obj:0)
U$B#11                                             50 	(obj:0)
U$B#13                                             40 	(obj:0)
U$B#14                                            110 	(obj:0)
U$B#15                                            120 	(obj:0)
U$B#16                                            120 	(obj:0)
U$B#17                                            120 	(obj:0)
U$B#18                                            120 	(obj:0)
U$B#19                                             60 	(obj:0)
U$B#20                                            120 	(obj:0)
U$B#21                                            120 	(obj:0)
U$B#22                                             60 	(obj:0)
U$B#23                                             40 	(obj:0)
U$B#24                                             20 	(obj:0)
U$C#1                                              70 	(obj:0)
U$C#7                                             120 	(obj:0)
U$C#10                                             60 	(obj:0)
U$C#12                                             60 	(obj:0)
U$C#16                                            120 	(obj:0)
U$C#17                                            120 	(obj:0)
U$C#22                                             50 	(obj:0)
U$D#2                                             100 	(obj:0)
U$D#3                                             120 	(obj:0)
U$D#5                                             120 	(obj:0)
U$D#9                                              60 	(obj:0)
U$D#10                                             30 	(obj:0)
U$D#11                                            100 	(obj:0)
U$D#15                                            120 	(obj:0)
U$D#18                                            120 	(obj:0)
U$D#20                                            120 	(obj:0)
U$D#22                                             50 	(obj:0)
U$D#24                                             10 	(obj:0)
U$E#3                                             100 	(obj:0)
U$E#4                                             120 	(obj:0)
U$E#5                                             120 	(obj:0)
U$E#6                                             120 	(obj:0)
U$E#8                                             120 	(obj:0)
U$E#10                                             70 	(obj:0)
U$E#11                                            120 	(obj:0)
U$E#12                                            120 	(obj:0)
U$E#13                                            120 	(obj:0)
U$E#18                                             60 	(obj:0)
U$E#19                                            120 	(obj:0)
U$E#21                                            120 	(obj:0)
U$E#22                                             70 	(obj:0)
U$E#23                                             60 	(obj:0)
F$A#1                                              35 	(obj:540)
F$A#6                                              20 	(obj:540)
F$A#7                                              20 	(obj:540)
F$A#8                                             100 	(obj:540)
F$A#9                                              20 	(obj:540)
F$A#18                                             30 	(obj:540)
F$A#19                                             65 	(obj:540)
F$A#20                                             20 	(obj:540)
F$A#21                                             90 	(obj:540)
F$B#1                                              25 	(obj:540)
F$B#6                                              20 	(obj:540)
F$B#7                                              20 	(obj:540)
F$B#8                                              20 	(obj:540)
F$B#9                                              20 	(obj:540)
F$B#18                                             20 	(obj:540)
F$B#19                                             20 	(obj:540)
F$B#20                                             20 	(obj:540)
F$B#21                                             25 	(obj:540)
F$C#1                                              25 	(obj:540)
F$C#6                                             120 	(obj:540)
F$C#7                                              20 	(obj:540)
F$C#8                                              35 	(obj:540)
F$C#9                                              20 	(obj:540)
F$C#18                                             50 	(obj:540)
F$C#19                                             20 	(obj:540)
F$C#20                                             20 	(obj:540)
F$C#21                                             20 	(obj:540)
F$D#1                                              20 	(obj:540)
F$D#6                                              20 	(obj:540)
F$D#7                                              20 	(obj:540)
F$D#8                                              25 	(obj:540)
F$D#9                                              20 	(obj:540)
F$D#18                                             25 	(obj:540)
F$D#19                                             20 	(obj:540)
F$D#20                                             20 	(obj:540)
F$D#21                                             20 	(obj:540)
F$E#1                                              30 	(obj:540)
F$E#6                                              20 	(obj:540)
F$E#7                                              20 	(obj:540)
F$E#8                                              20 	(obj:540)
F$E#9                                              25 	(obj:540)
F$E#18                                             35 	(obj:540)
F$E#19                                             20 	(obj:540)
F$E#20                                             20 	(obj:540)
F$E#21                                             20 	(obj:540)
